NAME: Golden_1
TYPE: CVRP
COMMENT: 5627.54
DIMENSION: 241
CAPACITY: 550
DISTANCE: 650.00000
VEHICLES: 10
EDGE_WEIGHT_TYPE: FUNCTION
EDGE_WEIGHT_FORMAT: EUC_2D
NODE_COORD_TYPE: TWOD_COORDS
NODE_COORD_SECTION
1 30.00000 0.00000
2 29.63060 4.69300
3 28.53170 9.27050
4 26.73020 13.61970
5 24.27050 17.63360
6 21.21320 21.21320
7 17.63360 24.27050
8 13.61970 26.73020
9 9.27050 28.53170
10 4.69300 29.63060
11 0.00000 30.00000
12 -4.69300 29.63060
13 -9.27050 28.53170
14 -13.61970 26.73020
15 -17.63360 24.27050
16 -21.21320 21.21320
17 -24.27050 17.63360
18 -26.73020 13.61970
19 -28.53170 9.27050
20 -29.63070 4.69300
21 -30.00000 0.00000
22 -29.63060 -4.69300
23 -28.53170 -9.27050
24 -26.73020 -13.61970
25 -24.27050 -17.63360
26 -21.21320 -21.21320
27 -17.63360 -24.27050
28 -13.61970 -26.73020
29 -9.27050 -28.53170
30 -4.69300 -29.63070
31 0.00000 -30.00000
32 4.69300 -29.63060
33 9.27050 -28.53170
34 13.61970 -26.73020
35 17.63360 -24.27050
36 21.21320 -21.21320
37 24.27050 -17.63360
38 26.73020 -13.61970
39 28.53170 -9.27050
40 29.63070 -4.69300
41 60.00000 0.00000
42 59.26130 9.38610
43 57.06340 18.54100
44 53.46040 27.23940
45 48.54100 35.26710
46 42.42640 42.42640
47 35.26710 48.54100
48 27.23940 53.46040
49 18.54100 57.06340
50 9.38610 59.26130
51 0.00000 60.00000
52 -9.38610 59.26130
53 -18.54100 57.06340
54 -27.23940 53.46040
55 -35.26710 48.54100
56 -42.42640 42.42640
57 -48.54100 35.26710
58 -53.46040 27.23940
59 -57.06340 18.54100
60 -59.26130 9.38610
61 -60.00000 0.00000
62 -59.26130 -9.38610
63 -57.06340 -18.54100
64 -53.46040 -27.23940
65 -48.54100 -35.26710
66 -42.42640 -42.42640
67 -35.26710 -48.54100
68 -27.23940 -53.46040
69 -18.54100 -57.06340
70 -9.38610 -59.26130
71 0.00000 -60.00000
72 9.38610 -59.26130
73 18.54100 -57.06340
74 27.23940 -53.46040
75 35.26710 -48.54100
76 42.42640 -42.42640
77 48.54100 -35.26710
78 53.46040 -27.23940
79 57.06340 -18.54100
80 59.26130 -9.38610
81 90.00000 0.00000
82 88.89200 14.07910
83 85.59510 27.81150
84 80.19060 40.85910
85 72.81150 52.90070
86 63.63960 63.63960
87 52.90070 72.81150
88 40.85910 80.19060
89 27.81150 85.59510
90 14.07910 88.89200
91 0.00000 90.00000
92 -14.07910 88.89200
93 -27.81150 85.59510
94 -40.85910 80.19060
95 -52.90070 72.81150
96 -63.63960 63.63960
97 -72.81150 52.90070
98 -80.19060 40.85910
99 -85.59510 27.81150
100 -88.89200 14.07910
101 -90.00000 0.00000
102 -88.89200 -14.07910
103 -85.59510 -27.81150
104 -80.19060 -40.85920
105 -72.81150 -52.90070
106 -63.63960 -63.63960
107 -52.90070 -72.81150
108 -40.85910 -80.19060
109 -27.81150 -85.59510
110 -14.07910 -88.89200
111 0.00000 -90.00000
112 14.07910 -88.89200
113 27.81150 -85.59510
114 40.85920 -80.19060
115 52.90070 -72.81150
116 63.63960 -63.63960
117 72.81150 -52.90070
118 80.19060 -40.85910
119 85.59510 -27.81150
120 88.89200 -14.07910
121 120.00000 0.00000
122 118.52260 18.77210
123 114.12680 37.08200
124 106.92080 54.47890
125 97.08200 70.53420
126 84.85280 84.85280
127 70.53420 97.08200
128 54.47890 106.92080
129 37.08200 114.12680
130 18.77210 118.52260
131 0.00000 120.00000
132 -18.77210 118.52260
133 -37.08200 114.12680
134 -54.47890 106.92080
135 -70.53420 97.08200
136 -84.85280 84.85280
137 -97.08200 70.53420
138 -106.92080 54.47890
139 -114.12680 37.08200
140 -118.52260 18.77210
141 -120.00000 0.00000
142 -118.52260 -18.77210
143 -114.12680 -37.08210
144 -106.92080 -54.47890
145 -97.08200 -70.53420
146 -84.85280 -84.85280
147 -70.53420 -97.08200
148 -54.47880 -106.92080
149 -37.08200 -114.12680
150 -18.77210 -118.52260
151 0.00000 -120.00000
152 18.77220 -118.52260
153 37.08210 -114.12680
154 54.47890 -106.92080
155 70.53420 -97.08200
156 84.85280 -84.85280
157 97.08210 -70.53420
158 106.92080 -54.47880
159 114.12680 -37.08200
160 118.52260 -18.77210
161 150.00000 0.00000
162 148.15320 23.46520
163 142.65849 46.35260
164 133.65100 68.09860
165 121.35250 88.16780
166 106.06600 106.06600
167 88.16780 121.35260
168 68.09860 133.65100
169 46.35250 142.65849
170 23.46520 148.15331
171 0.00000 150.00000
172 -23.46520 148.15320
173 -46.35260 142.65849
174 -68.09860 133.65100
175 -88.16780 121.35250
176 -106.06600 106.06600
177 -121.35260 88.16780
178 -133.65100 68.09860
179 -142.65849 46.35250
180 -148.15331 23.46520
181 -150.00000 0.00000
182 -148.15320 -23.46520
183 -142.65849 -46.35260
184 -133.65100 -68.09860
185 -121.35250 -88.16780
186 -106.06600 -106.06600
187 -88.16780 -121.35260
188 -68.09860 -133.65100
189 -46.35250 -142.65849
190 -23.46520 -148.15331
191 0.00000 -150.00000
192 23.46520 -148.15320
193 46.35260 -142.65849
194 68.09860 -133.65100
195 88.16780 -121.35250
196 106.06600 -106.06600
197 121.35260 -88.16780
198 133.65100 -68.09860
199 142.65849 -46.35250
200 148.15331 -23.46510
201 180.00000 0.00000
202 177.78391 28.15820
203 171.19020 55.62310
204 160.38120 81.71830
205 145.62309 105.80130
206 127.27920 127.27920
207 105.80130 145.62309
208 81.71830 160.38120
209 55.62310 171.19020
210 28.15820 177.78391
211 0.00000 180.00000
212 -28.15820 177.78391
213 -55.62310 171.19020
214 -81.71830 160.38120
215 -105.80140 145.62300
216 -127.27920 127.27920
217 -145.62309 105.80130
218 -160.38120 81.71830
219 -171.19020 55.62300
220 -177.78391 28.15820
221 -180.00000 0.00000
222 -177.78391 -28.15820
223 -171.19020 -55.62310
224 -160.38120 -81.71830
225 -145.62300 -105.80140
226 -127.27920 -127.27920
227 -105.80130 -145.62309
228 -81.71830 -160.38120
229 -55.62300 -171.19020
230 -28.15820 -177.78391
231 0.00000 -180.00000
232 28.15820 -177.78391
233 55.62310 -171.19020
234 81.71830 -160.38120
235 105.80140 -145.62300
236 127.27920 -127.27920
237 145.62309 -105.80130
238 160.38120 -81.71830
239 171.19020 -55.62300
240 177.78391 -28.15820
DEMAND_SECTION
1 10
2 30
3 30
4 10
5 10
6 30
7 30
8 10
9 10
10 30
11 30
12 10
13 10
14 30
15 30
16 10
17 10
18 30
19 30
20 10
21 10
22 30
23 30
24 10
25 10
26 30
27 30
28 10
29 10
30 30
31 30
32 10
33 10
34 30
35 30
36 10
37 10
38 30
39 30
40 10
41 10
42 30
43 30
44 10
45 10
46 30
47 30
48 10
49 10
50 30
51 30
52 10
53 10
54 30
55 30
56 10
57 10
58 30
59 30
60 10
61 10
62 30
63 30
64 10
65 10
66 30
67 30
68 10
69 10
70 30
71 30
72 10
73 10
74 30
75 30
76 10
77 10
78 30
79 30
80 10
81 10
82 30
83 30
84 10
85 10
86 30
87 30
88 10
89 10
90 30
91 30
92 10
93 10
94 30
95 30
96 10
97 10
98 30
99 30
100 10
101 10
102 30
103 30
104 10
105 10
106 30
107 30
108 10
109 10
110 30
111 30
112 10
113 10
114 30
115 30
116 10
117 10
118 30
119 30
120 10
121 10
122 30
123 30
124 10
125 10
126 30
127 30
128 10
129 10
130 30
131 30
132 10
133 10
134 30
135 30
136 10
137 10
138 30
139 30
140 10
141 10
142 30
143 30
144 10
145 10
146 30
147 30
148 10
149 10
150 30
151 30
152 10
153 10
154 30
155 30
156 10
157 10
158 30
159 30
160 10
161 10
162 30
163 30
164 10
165 10
166 30
167 30
168 10
169 10
170 30
171 30
172 10
173 10
174 30
175 30
176 10
177 10
178 30
179 30
180 10
181 10
182 30
183 30
184 10
185 10
186 30
187 30
188 10
189 10
190 30
191 30
192 10
193 10
194 30
195 30
196 10
197 10
198 30
199 30
200 10
201 10
202 30
203 30
204 10
205 10
206 30
207 30
208 10
209 10
210 30
211 30
212 10
213 10
214 30
215 30
216 10
217 10
218 30
219 30
220 10
221 10
222 30
223 30
224 10
225 10
226 30
227 30
228 10
229 10
230 30
231 30
232 10
233 10
234 30
235 30
236 10
237 10
238 30
239 30
240 10
DEPOT_SECTION
0.00000 0.00000
-1
EOF
